unsat
(define-fun f ((x (_ BitVec 64))) (_ BitVec 64) #b0000000000000000000000000000000000000000000000000000000000000000)
0.08user 0.01system 0:00.09elapsed 98%CPU (0avgtext+0avgdata 32204maxresident)k
0inputs+8outputs (0major+2751minor)pagefaults 0swaps
